Version identifier: 22.1.0.0 | 2022-03-09 | 1a383f8ce
CPXPARAM_Threads                                 1
CPXPARAM_MIP_Strategy_VariableSelect             3
CPXPARAM_TimeLimit                               599.99997888899998
1 of 1 MIP starts provided solutions.
MIP start 'm1' defined initial solution with objective 19.0000.
Tried aggregator 1 time.
MIP Presolve eliminated 16 rows and 0 columns.
MIP Presolve modified 53 coefficients.
Reduced MIP has 4505 rows, 10500 columns, and 213226 nonzeros.
Reduced MIP has 10500 binaries, 0 generals, 0 SOSs, and 0 indicators.
Presolve time = 0.21 sec. (349.92 ticks)
Probing time = 0.03 sec. (24.70 ticks)
Tried aggregator 1 time.
Detecting symmetries...
MIP Presolve modified 16 coefficients.
Reduced MIP has 4505 rows, 10500 columns, and 213394 nonzeros.
Reduced MIP has 10500 binaries, 0 generals, 0 SOSs, and 0 indicators.
Presolve time = 0.20 sec. (325.25 ticks)
Probing time = 0.03 sec. (24.71 ticks)
Clique table members: 3739.
MIP emphasis: balance optimality and feasibility.
MIP search method: dynamic search.
Parallel mode: none, using 1 thread.
Root relaxation solution time = 88.64 sec. (106543.96 ticks)

        Nodes                                         Cuts/
   Node  Left     Objective  IInf  Best Integer    Best Bound    ItCnt     Gap

*     0+    0                           19.0000   125250.0000              --- 
      0     0      500.0000  2042       19.0000      500.0000   130707     --- 
      0     0      500.0000  2049       19.0000    Cliques: 4   257619     --- 
*     0+    0                          500.0000      500.0000             0.00%
      0     0        cutoff            500.0000      500.0000   257619    0.00%
Elapsed time = 193.84 sec. (225370.97 ticks, tree = 0.01 MB, solutions = 2)

Clique cuts applied:  2

Root node processing (before b&c):
  Real time             =  193.84 sec. (225372.06 ticks)
Sequential b&c:
  Real time             =    0.00 sec. (0.00 ticks)
                          ------------
Total (root+branch&cut) =  193.84 sec. (225372.06 ticks)
Primal:	500
Dual:	500
Status:	Optimal
Time:	193.89
Sequence:
	8
	16
	6
	17
	14
	3
	17
	14
	3
	17
	7
	6
	8
	7
	5
	8
	7
	3
	17
	6
	16
	1
	15
	16
	1
	12
	16
	13
	17
	7
	13
	17
	14
	3
	17
	6
	16
	9
	6
	11
	9
	13
	11
	9
	5
	0
	9
	14
	0
	9
	16
	6
	8
	5
	7
	8
	13
	16
	8
	6
	16
	8
	4
	14
	8
	13
	14
	17
	13
	16
	8
	13
	14
	17
	13
	14
	8
	5
	7
	12
	19
	7
	12
	19
	14
	12
	1
	16
	12
	19
	16
	12
	1
	14
	12
	19
	16
	12
	19
	7
	12
	1
	7
	12
	19
	16
	12
	1
	16
	12
	19
	16
	12
	1
	14
	5
	8
	16
	3
	8
	16
	13
	17
	4
	14
	8
	5
	7
	17
	6
	16
	8
	5
	7
	17
	13
	16
	8
	6
	7
	17
	13
	7
	8
	5
	3
	18
	4
	2
	18
	4
	2
	18
	4
	2
	18
	3
	2
	18
	3
	2
	18
	3
	2
	18
	4
	2
	10
	0
	15
	1
	11
	15
	1
	7
	12
	1
	16
	12
	19
	7
	12
	19
	5
	12
	19
	7
	12
	1
	7
	12
	1
	14
	12
	1
	6
	11
	9
	6
	11
	9
	13
	11
	9
	6
	11
	9
	6
	11
	9
	13
	11
	9
	5
	0
	9
	4
	0
	10
	15
	0
	1
	2
	11
	19
	4
	12
	19
	5
	14
	8
	4
	16
	8
	3
	7
	1
	3
	11
	9
	13
	11
	9
	13
	11
	9
	3
	11
	19
	2
	11
	1
	15
	11
	1
	15
	11
	1
	2
	11
	1
	15
	11
	1
	3
	2
	18
	3
	2
	18
	4
	2
	18
	3
	4
	8
	7
	13
	8
	14
	13
	17
	7
	5
	8
	16
	13
	8
	7
	13
	17
	7
	5
	8
	14
	5
	8
	7
	3
	17
	7
	13
	9
	11
	4
	9
	11
	4
	9
	11
	13
	9
	11
	13
	9
	11
	13
	1
	12
	16
	1
	12
	16
	19
	12
	14
	19
	12
	16
	19
	0
	7
	9
	13
	11
	9
	6
	11
	9
	5
	14
	17
	4
	3
	18
	2
	4
	18
	2
	4
	18
	2
	4
	18
	2
	4
	18
	3
	2
	18
	4
	2
	18
	4
	2
	10
	0
	2
	10
	0
	15
	10
	4
	12
	19
	7
	12
	19
	5
	0
	10
	15
	0
	10
	15
	0
	10
	15
	0
	10
	15
	0
	10
	15
	0
	10
	15
	0
	10
	15
	0
	10
	2
	0
	10
	15
	0
	1
	16
	12
	1
	13
	11
	9
	3
	14
	17
	6
	16
	8
	5
	14
	17
	4
	7
	8
	13
	16
	8
	13
	16
	8
	13
	14
	8
	4
	14
	8
	5
	7
	8
	4
	7
	17
	13
	14
	17
	4
	7
	17
	4
	7
	17
	6
	7
	8
	5
	4
	18
	2
	4
	18
	2
	3
	10
	0
	15
	10
	0
	15
	10
	0
	15
	10
	0
	15
	10
	0
	13
	10
	12
	5
	19
	12
	5
	14
	17
	3
	14
	17
	4
	14
	17
	6
	7
	8
	6
	7
	8
	5
